c WARNING: for repeatability, setting FPU to use double precision
d VARIABLES            73340        
d CONSTRAINTS          294649       
c ============================[ Problem Statistics ]=============================
c |                                                                             |
c |  Number of variables:         73340                                         |
c |  Number of clauses:          294649                                         |
c |  Parse time:                   0.05 s                                       |
c |                                                                             |
c ============================[ Search Statistics ]==============================
c | Conflicts |          ORIGINAL         |          LEARNT          | Progress |
c |           |    Vars  Clauses Literals |    Limit  Clauses Lit/Cl |          |
c ===============================================================================
c |       100 |   54070   245019   598113 |    89840      100      5 | 26.275 % |
c |       250 |   54070   245019   598113 |    98824      250     27 | 26.275 % |
c |       475 |   54070   245019   598113 |   108706      475     58 | 26.275 % |
c |       812 |   54070   245019   598113 |   119577      812     72 | 26.275 % |
c |      1318 |   54070   245019   598113 |   131535     1318     98 | 26.275 % |
c |      2077 |   54070   245019   598113 |   144688     2077     99 | 26.275 % |
c |      3216 |   54070   245019   598113 |   159157     3216    105 | 26.275 % |
c |      4924 |   54070   245019   598113 |   175073     4924    118 | 26.275 % |
c |      7486 |   54070   245019   598113 |   192580     7486    115 | 26.275 % |
c |     11330 |   54070   245019   598113 |   211838    11330    142 | 26.275 % |
c |     17096 |   54070   245019   598113 |   233022    17096    142 | 26.275 % |
c |     25745 |   54070   245019   598113 |   256324    25745    154 | 26.275 % |
c |     38719 |   54070   245019   598113 |   281957    38719    154 | 26.275 % |
c |     58180 |   54070   245019   598113 |   310153    58180    164 | 26.275 % |
c |     87372 |   54070   245019   598113 |   341168    87372    164 | 26.275 % |
c |    131161 |   54070   245019   598113 |   375285   131161    162 | 26.275 % |
c |    196845 |   54070   245019   598113 |   412813   196845    148 | 26.275 % |
c |    295371 |   54070   245019   598113 |   454095   295371    143 | 26.275 % |
c |    443160 |   54070   245019   598113 |   499504   443160    128 | 26.275 % |
c |    664843 |   54070   245019   598113 |   549455   178454     97 | 26.275 % |
c |    997368 |   54070   245019   598113 |   604400   510979    100 | 26.275 % |
c |   1496156 |   54070   245019   598113 |   664840   402039    131 | 26.275 % |
c |   2244338 |   54070   245019   598113 |   731324   506475     99 | 26.275 % |
c |   3366612 |   54063   244985   598031 |   804457   182389    113 | 26.284 % |
c ===============================================================================
c restarts              : 8188
c conflicts             : 4613676        (2575 /sec)
c decisions             : 9371542        (0.00 % random) (5230 /sec)
c propagations          : 3797700368     (2119380 /sec)
c conflict literals     : 502333488      (31.58 % deleted)
d RESTARTS             8188
d FAILURES             4613676      
d NODES                9371542      
d BACKTRACKS           9371542      
d PROPAGATIONS         3797700368   
d NOGOODSIZE           108.88 
d MEMORY               715.00 
d TIME                 1791.89 

s UNKNOWN
